\ LP format - for model browsing. Use MPS format to capture full model detail.
Maximize
obj:   x[1] + x[96] + x[64] + x[68] + x[69] + x[8] + x[18] + x[110] + x[47]
   + x[112] + x[50] + x[84] + x[142] + x[86] + x[59] + x[28] + x[61]
   + x[101] + x[2] + x[65] + x[130] + x[99] + x[72] + x[14] + x[79] + x[81]
   + x[57] + x[60] + x[3] + x[83] + x[49] + x[71] + x[9] + x[103] + x[44]
   + x[143] + x[144] + x[113] + x[146] + x[115] + x[54] + x[105] + x[15]
   + x[29] + x[150] + x[4] + x[10] + x[148] + x[23] + x[38] + x[40] + x[56]
   + x[66] + x[70] + x[74] + x[78] + x[85] + x[93] + x[107] + x[114]
   + x[118] + x[120] + x[124] + x[5] + x[129] + x[6] + x[7] + x[104]
   + x[42] + x[17] + x[21] + x[32] + x[98] + x[131] + x[102] + x[139]
   + x[140] + x[116] + x[62] + x[22] + x[121] + x[126] + x[34] + x[67]
   + x[45] + x[141] + x[26] + x[147] + x[122] + x[125] + x[135] + x[12]
   + x[145] + x[24] + x[41] + x[76] + x[77] + x[25] + x[94] + x[117]
   + x[19] + x[36] + x[55] + x[11] + x[109] + x[51] + x[73] + x[20] + x[35]
   + x[31] + x[92] + x[138] + x[95] + x[133] + x[89] + x[13] + x[100]
   + x[111] + x[80] + x[149] + x[27] + x[16] + x[52] + x[91] + x[106]
   + x[88] + x[137] + x[43] + x[90] + x[58] + x[134] + x[82] + x[39]
   + x[63] + x[75] + x[123] + x[33] + x[53] + x[30] + x[46] + x[136]
   + x[48] + x[127] + x[132] + x[97] + x[87] + x[37] + x[128] + x[119]
   + x[108]
Subject To
 nod1: 13 x[1] + x[96] + x[64] + x[68] + x[69] + x[8] + x[18] + x[110]
   + x[47] + x[112] + x[50] + x[84] + x[142] + x[86] + x[59] + x[28]
   + x[61] + x[101] <= 13
 nod96: x[1] + 11 x[96] + x[8] + x[18] + x[61] + x[60] + x[44] + x[115]
   + x[15] + x[70] + x[93] + x[102] + x[116] + x[135] + x[41] + x[94]
   + x[39] + x[127] <= 11
 nod64: x[1] + 10 x[64] + x[79] + x[81] + x[57] + x[83] + x[129] + x[104]
   + x[42] + x[21] + x[147] + x[97] + x[37] <= 10
 nod68: x[1] + 12 x[68] + x[81] + x[57] + x[3] + x[74] + x[78] + x[120]
   + x[5] + x[6] + x[45] + x[125] + x[20] + x[89] + x[58] + x[123] + x[53]
   + x[37] + x[119] <= 12
 nod69: x[1] + 10 x[69] + x[8] + x[83] + x[71] + x[113] + x[7] + x[21]
   + x[62] + x[35] + x[31] + x[92] + x[90] + x[75] + x[97] + x[108] <= 10
 nod8: x[1] + x[96] + x[69] + 9 x[8] + x[84] + x[61] + x[70] + x[74]
   + x[114] + x[6] + x[22] + x[135] + x[12] + x[145] + x[24] <= 9
 nod18: x[1] + x[96] + 9 x[18] + x[59] + x[79] + x[104] + x[98] + x[55]
   + x[20] + x[106] + x[137] + x[43] + x[90] + x[58] <= 9
 nod110: x[1] + 10 x[110] + x[56] + x[129] + x[6] + x[21] + x[98] + x[41]
   + x[51] + x[89] + x[91] + x[88] + x[63] + x[123] + x[33] + x[46]
   + x[127] + x[87] <= 10
 nod47: x[1] + 7 x[47] + x[86] + x[150] + x[6] + x[104] + x[42] + x[140]
   + x[11] + x[134] + x[39] + x[123] + x[87] <= 7
 nod112: x[1] + 9 x[112] + x[143] + x[4] + x[66] + x[70] + x[22] + x[76]
   + x[27] + x[43] + x[82] + x[132] + x[97] + x[108] <= 9
 nod50: x[1] + 9 x[50] + x[2] + x[130] + x[146] + x[54] + x[118] + x[104]
   + x[147] + x[73] + x[92] + x[13] + x[149] + x[75] + x[48] <= 9
 nod84: x[1] + x[8] + 12 x[84] + x[57] + x[146] + x[105] + x[10] + x[70]
   + x[93] + x[107] + x[42] + x[122] + x[25] + x[19] + x[55] + x[89]
   + x[137] + x[37] + x[108] <= 12
 nod142: x[1] + 12 x[142] + x[83] + x[9] + x[115] + x[15] + x[120] + x[7]
   + x[102] + x[34] + x[122] + x[117] + x[31] + x[92] + x[95] + x[133]
   + x[137] + x[58] + x[46] + x[132] + x[119] <= 12
 nod86: x[1] + x[47] + 8 x[86] + x[59] + x[113] + x[40] + x[114] + x[7]
   + x[125] + x[55] + x[31] + x[27] + x[137] + x[82] + x[128] <= 8
 nod59: x[1] + x[18] + x[86] + 11 x[59] + x[81] + x[9] + x[98] + x[116]
   + x[12] + x[76] + x[117] + x[20] + x[127] + x[132] + x[97] + x[87]
   <= 11
 nod28: x[1] + 7 x[28] + x[61] + x[57] + x[150] + x[78] + x[102] + x[12]
   + x[51] + x[133] + x[111] + x[88] <= 7
 nod61: x[1] + x[96] + x[8] + x[28] + 9 x[61] + x[83] + x[71] + x[66]
   + x[7] + x[147] + x[76] + x[11] + x[73] + x[149] + x[87] <= 9
 nod101: x[1] + 8 x[101] + x[71] + x[103] + x[23] + x[124] + x[7] + x[89]
   + x[149] + x[82] <= 8
 nod2: x[50] + 9 x[2] + x[65] + x[130] + x[99] + x[72] + x[14] + x[79]
   + x[81] + x[57] + x[60] <= 9
 nod65: x[2] + 10 x[65] + x[105] + x[4] + x[38] + x[66] + x[78] + x[102]
   + x[62] + x[147] + x[41] + x[20] + x[27] + x[91] + x[88] + x[48] <= 10
 nod130: x[50] + x[2] + 7 x[130] + x[23] + x[85] + x[7] + x[62] + x[12]
   + x[19] + x[123] <= 7
 nod99: x[2] + 6 x[99] + x[83] + x[74] + x[145] + x[73] + x[20] <= 6
 nod72: x[2] + 13 x[72] + x[3] + x[9] + x[4] + x[70] + x[85] + x[114]
   + x[7] + x[22] + x[12] + x[117] + x[55] + x[11] + x[73] + x[35] + x[137]
   + x[58] + x[134] + x[82] <= 13
 nod14: x[2] + 6 x[14] + x[44] + x[115] + x[131] + x[102] + x[80] <= 6
 nod79: x[64] + x[18] + x[2] + 10 x[79] + x[4] + x[5] + x[6] + x[21]
   + x[140] + x[62] + x[26] + x[63] + x[30] + x[128] <= 10
 nod81: x[64] + x[68] + x[59] + x[2] + 8 x[81] + x[148] + x[56] + x[124]
   + x[135] + x[145] + x[117] + x[19] + x[89] + x[97] <= 8
 nod57: x[64] + x[68] + x[84] + x[28] + x[2] + 12 x[57] + x[115] + x[54]
   + x[4] + x[38] + x[107] + x[21] + x[32] + x[125] + x[36] + x[11]
   + x[109] + x[52] + x[137] + x[58] + x[123] + x[46] <= 12
 nod60: x[96] + x[2] + 10 x[60] + x[4] + x[78] + x[93] + x[114] + x[116]
   + x[94] + x[73] + x[13] + x[100] + x[82] + x[46] + x[132] + x[87] <= 10
 nod3: x[68] + x[72] + 15 x[3] + x[83] + x[49] + x[71] + x[9] + x[103]
   + x[44] + x[143] + x[144] + x[113] + x[146] + x[115] + x[54] + x[105]
   + x[15] + x[29] + x[150] <= 15
 nod83: x[64] + x[69] + x[142] + x[61] + x[99] + x[3] + 9 x[83] + x[71]
   + x[66] + x[116] + x[35] + x[106] + x[39] + x[48] <= 9
 nod49: x[3] + 8 x[49] + x[23] + x[38] + x[102] + x[116] + x[67] + x[117]
   + x[36] + x[55] + x[128] <= 8
 nod71: x[69] + x[61] + x[101] + x[3] + x[83] + 11 x[71] + x[146] + x[115]
   + x[148] + x[56] + x[129] + x[104] + x[98] + x[131] + x[90] + x[48]
   + x[97] <= 11
 nod9: x[142] + x[59] + x[72] + x[3] + 9 x[9] + x[85] + x[104] + x[98]
   + x[102] + x[45] + x[147] + x[41] + x[76] + x[77] + x[25] + x[94]
   + x[117] <= 9
 nod103: x[101] + x[3] + 9 x[103] + x[38] + x[120] + x[5] + x[17] + x[77]
   + x[90] + x[30] + x[48] + x[132] + x[128] <= 9
 nod44: x[96] + x[14] + x[3] + 11 x[44] + x[38] + x[56] + x[5] + x[45]
   + x[12] + x[25] + x[13] + x[134] + x[82] + x[39] + x[33] <= 11
 nod143: x[112] + x[3] + 10 x[143] + x[146] + x[15] + x[4] + x[66] + x[42]
   + x[131] + x[139] + x[109] + x[100] + x[27] + x[91] + x[134] + x[87]
   + x[37] + x[119] <= 10
 nod144: x[3] + 5 x[144] + x[148] + x[56] + x[129] + x[147] + x[135]
   + x[145] + x[55] + x[89] + x[137] <= 5
 nod113: x[69] + x[86] + x[3] + 14 x[113] + x[10] + x[70] + x[85] + x[107]
   + x[118] + x[5] + x[6] + x[42] + x[140] + x[34] + x[125] + x[135]
   + x[145] + x[36] + x[55] + x[11] + x[27] + x[16] + x[90] + x[123]
   + x[46] <= 14
 nod146: x[50] + x[84] + x[3] + x[71] + x[143] + 10 x[146] + x[23] + x[56]
   + x[120] + x[129] + x[116] + x[11] + x[80] + x[119] <= 10
 nod115: x[96] + x[142] + x[14] + x[57] + x[3] + x[71] + 8 x[115] + x[141]
   + x[26] + x[36] + x[31] + x[58] + x[134] + x[53] + x[132] + x[119] <= 8
 nod54: x[50] + x[57] + x[3] + 12 x[54] + x[56] + x[74] + x[93] + x[145]
   + x[19] + x[20] + x[35] + x[13] + x[80] + x[106] + x[75] + x[128]
   + x[119] <= 12
 nod105: x[84] + x[65] + x[3] + 10 x[105] + x[38] + x[70] + x[26] + x[24]
   + x[73] + x[27] + x[106] + x[33] + x[53] + x[128] <= 10
 nod15: x[96] + x[142] + x[3] + x[143] + 8 x[15] + x[23] + x[38] + x[42]
   + x[116] + x[22] + x[121] + x[27] <= 8
 nod29: x[3] + 8 x[29] + x[74] + x[93] + x[114] + x[32] + x[77] + x[55]
   + x[80] + x[88] + x[134] + x[53] + x[97] <= 8
 nod150: x[47] + x[28] + x[3] + 11 x[150] + x[26] + x[41] + x[11] + x[31]
   + x[138] + x[13] + x[16] + x[33] + x[127] + x[37] <= 11
 nod4: x[112] + x[65] + x[72] + x[79] + x[57] + x[60] + x[143] + 13 x[4]
   + x[10] + x[148] + x[23] + x[38] + x[40] + x[56] + x[66] + x[70] + x[74]
   + x[78] + x[85] + x[93] + x[107] + x[114] + x[118] + x[120] + x[124]
   <= 13
 nod10: x[84] + x[113] + x[4] + 10 x[10] + x[66] + x[70] + x[78] + x[114]
   + x[118] + x[17] + x[62] + x[41] + x[19] + x[36] + x[55] + x[11]
   + x[109] + x[51] + x[73] + x[20] <= 10
 nod148: x[81] + x[71] + x[144] + x[4] + 8 x[148] + x[122] + x[12] + x[36]
   + x[89] + x[137] + x[132] + x[87] <= 8
 nod23: x[101] + x[130] + x[49] + x[146] + x[15] + x[4] + 11 x[23] + x[118]
   + x[116] + x[122] + x[77] + x[134] + x[63] + x[33] + x[53] + x[30]
   <= 11
 nod38: x[65] + x[57] + x[49] + x[103] + x[44] + x[105] + x[15] + x[4]
   + 11 x[38] + x[32] + x[98] + x[77] + x[94] + x[109] + x[133] + x[82]
   <= 11
 nod40: x[86] + x[4] + 9 x[40] + x[74] + x[98] + x[139] + x[62] + x[126]
   + x[76] + x[94] + x[138] + x[27] + x[87] + x[128] <= 9
 nod56: x[110] + x[81] + x[71] + x[44] + x[144] + x[146] + x[54] + x[4]
   + 13 x[56] + x[78] + x[32] + x[116] + x[22] + x[145] + x[94] + x[19]
   + x[55] + x[92] + x[111] + x[52] + x[46] + x[136] + x[127] + x[128]
   <= 13
 nod66: x[112] + x[61] + x[65] + x[83] + x[143] + x[4] + x[10] + 11 x[66]
   + x[70] + x[114] + x[124] + x[5] + x[26] + x[125] + x[25] + x[51]
   + x[75] <= 11
 nod70: x[96] + x[8] + x[112] + x[84] + x[72] + x[113] + x[105] + x[4]
   + x[10] + x[66] + 11 x[70] + x[93] + x[104] + x[32] + x[147] + x[122]
   + x[117] + x[51] + x[80] <= 11
 nod74: x[68] + x[8] + x[99] + x[54] + x[29] + x[4] + x[40] + 14 x[74]
   + x[124] + x[42] + x[98] + x[62] + x[94] + x[36] + x[55] + x[51] + x[31]
   + x[133] + x[100] + x[91] + x[43] + x[53] + x[46] + x[119] <= 14
 nod78: x[68] + x[28] + x[65] + x[60] + x[4] + x[10] + x[56] + 8 x[78]
   + x[62] + x[31] + x[111] + x[82] + x[30] + x[136] <= 8
 nod85: x[130] + x[72] + x[9] + x[113] + x[4] + 8 x[85] + x[5] + x[42]
   + x[62] + x[41] + x[77] + x[117] + x[13] + x[149] + x[106] + x[90]
   + x[97] <= 8
 nod93: x[96] + x[84] + x[60] + x[54] + x[29] + x[4] + x[70] + 8 x[93]
   + x[124] + x[26] + x[12] + x[53] + x[30] <= 8
 nod107: x[84] + x[57] + x[113] + x[4] + 6 x[107] + x[32] + x[22] + x[12]
   + x[36] <= 6
 nod114: x[8] + x[86] + x[72] + x[60] + x[29] + x[4] + x[10] + x[66]
   + 12 x[114] + x[21] + x[67] + x[20] + x[92] + x[89] + x[137] + x[58]
   + x[30] + x[128] <= 12
 nod118: x[50] + x[113] + x[4] + x[10] + x[23] + 10 x[118] + x[124]
   + x[125] + x[135] + x[94] + x[92] + x[149] + x[27] + x[88] + x[43]
   + x[90] + x[108] <= 10
 nod120: x[68] + x[142] + x[103] + x[146] + x[4] + 10 x[120] + x[102]
   + x[139] + x[116] + x[147] + x[41] + x[25] + x[75] + x[136] + x[37]
   <= 10
 nod124: x[101] + x[81] + x[4] + x[66] + x[74] + x[93] + x[118] + 10 x[124]
   + x[98] + x[140] + x[121] + x[73] + x[89] + x[48] + x[87] + x[128]
   <= 10
 nod5: x[68] + x[79] + x[103] + x[44] + x[113] + x[66] + x[85] + 9 x[5]
   + x[129] + x[6] + x[7] + x[104] + x[42] + x[17] + x[21] <= 9
 nod129: x[64] + x[110] + x[71] + x[144] + x[146] + x[5] + 11 x[129]
   + x[140] + x[62] + x[41] + x[31] + x[63] + x[75] + x[33] + x[87] <= 11
 nod6: x[68] + x[8] + x[110] + x[47] + x[79] + x[113] + x[5] + 12 x[6]
   + x[104] + x[32] + x[98] + x[131] + x[102] + x[139] + x[140] + x[116]
   + x[62] + x[22] + x[121] + x[126] <= 12
 nod7: x[69] + x[142] + x[86] + x[61] + x[101] + x[130] + x[72] + x[5]
   + 15 x[7] + x[21] + x[102] + x[139] + x[126] + x[34] + x[67] + x[45]
   + x[141] + x[26] + x[147] + x[122] + x[125] <= 15
 nod104: x[64] + x[18] + x[47] + x[50] + x[71] + x[9] + x[70] + x[5] + x[6]
   + 14 x[104] + x[116] + x[121] + x[24] + x[95] + x[133] + x[33] + x[48]
   <= 14
 nod42: x[64] + x[47] + x[84] + x[143] + x[113] + x[15] + x[74] + x[85]
   + x[5] + 11 x[42] + x[34] + x[41] + x[77] + x[94] + x[51] + x[138]
   + x[100] + x[149] + x[88] + x[58] <= 11
 nod17: x[103] + x[10] + x[5] + 5 x[17] + x[11] + x[95] + x[106] + x[88]
   <= 5
 nod21: x[64] + x[69] + x[110] + x[79] + x[57] + x[114] + x[5] + x[7]
   + 10 x[21] + x[32] + x[98] + x[26] + x[55] + x[106] + x[63] <= 10
 nod32: x[57] + x[29] + x[38] + x[56] + x[70] + x[107] + x[6] + x[21]
   + 12 x[32] + x[147] + x[135] + x[77] + x[31] + x[13] + x[80] + x[149]
   + x[52] + x[58] + x[39] <= 12
 nod98: x[18] + x[110] + x[59] + x[71] + x[9] + x[38] + x[40] + x[74]
   + x[124] + x[6] + x[21] + 11 x[98] + x[22] + x[145] + x[41] + x[13]
   + x[80] + x[136] <= 11
 nod131: x[14] + x[71] + x[143] + x[6] + 8 x[131] + x[22] + x[45] + x[122]
   + x[55] + x[73] + x[88] + x[58] + x[75] <= 8
 nod102: x[96] + x[142] + x[28] + x[65] + x[14] + x[49] + x[9] + x[120]
   + x[6] + x[7] + 12 x[102] + x[147] + x[55] + x[88] + x[43] + x[53]
   + x[87] <= 12
 nod139: x[143] + x[40] + x[120] + x[6] + x[7] + 9 x[139] + x[116] + x[125]
   + x[12] + x[51] + x[35] + x[31] + x[136] + x[37] <= 9
 nod140: x[47] + x[79] + x[113] + x[124] + x[129] + x[6] + 10 x[140]
   + x[121] + x[122] + x[24] + x[51] + x[134] + x[39] + x[46] + x[136]
   + x[128] + x[108] <= 10
 nod116: x[96] + x[59] + x[60] + x[83] + x[49] + x[146] + x[15] + x[23]
   + x[56] + x[120] + x[6] + x[104] + x[139] + 9 x[116] + x[67] + x[137]
   + x[48] <= 9
 nod62: x[69] + x[65] + x[130] + x[79] + x[10] + x[40] + x[74] + x[78]
   + x[85] + x[129] + x[6] + 10 x[62] + x[126] + x[122] + x[94] + x[117]
   + x[39] + x[136] <= 10
 nod22: x[8] + x[112] + x[72] + x[15] + x[56] + x[107] + x[6] + x[98]
   + x[131] + 11 x[22] + x[125] + x[41] + x[149] + x[27] + x[90] + x[58]
   + x[39] + x[75] + x[123] <= 11
 nod121: x[15] + x[124] + x[6] + x[104] + x[140] + 10 x[121] + x[45]
   + x[109] + x[51] + x[73] + x[31] + x[138] + x[100] + x[80] + x[27]
   <= 10
 nod126: x[40] + x[6] + x[7] + x[62] + 8 x[126] + x[89] + x[111] + x[80]
   + x[91] + x[134] <= 8
 nod34: x[142] + x[113] + x[7] + x[42] + 7 x[34] + x[109] + x[31] + x[138]
   + x[52] + x[127] <= 7
 nod67: x[49] + x[114] + x[7] + x[116] + 6 x[67] + x[27] + x[52] + x[91]
   + x[90] <= 6
 nod45: x[68] + x[9] + x[44] + x[7] + x[131] + x[121] + 7 x[45] + x[25]
   + x[19] + x[55] + x[13] <= 7
 nod141: x[115] + x[7] + 7 x[141] + x[122] + x[11] + x[88] + x[134] + x[30]
   + x[132] + x[119] <= 7
 nod26: x[79] + x[115] + x[105] + x[150] + x[66] + x[93] + x[7] + x[21]
   + 10 x[26] + x[122] + x[41] + x[77] + x[94] + x[89] + x[137] + x[132]
   <= 10
 nod147: x[64] + x[50] + x[61] + x[65] + x[9] + x[144] + x[70] + x[120]
   + x[7] + x[32] + x[102] + 10 x[147] + x[135] + x[145] + x[133] + x[52]
   + x[91] + x[58] <= 10
 nod122: x[84] + x[142] + x[148] + x[23] + x[70] + x[7] + x[131] + x[140]
   + x[62] + x[141] + x[26] + 12 x[122] + x[125] + x[77] + x[117] + x[13]
   + x[16] + x[75] <= 12
 nod125: x[68] + x[86] + x[57] + x[113] + x[66] + x[118] + x[7] + x[139]
   + x[22] + x[122] + 9 x[125] + x[135] + x[19] + x[31] + x[82] + x[30]
   <= 9
 nod135: x[96] + x[8] + x[81] + x[144] + x[113] + x[118] + x[32] + x[147]
   + x[125] + 7 x[135] + x[145] + x[95] + x[111] + x[52] + x[119] <= 7
 nod12: x[8] + x[59] + x[28] + x[130] + x[72] + x[44] + x[148] + x[93]
   + x[107] + x[139] + 10 x[12] + x[133] + x[89] <= 10
 nod145: x[8] + x[99] + x[81] + x[144] + x[113] + x[54] + x[56] + x[98]
   + x[147] + x[135] + 8 x[145] + x[36] + x[55] + x[133] + x[13] <= 8
 nod24: x[8] + x[105] + x[104] + x[140] + 5 x[24] + x[134] + x[46] <= 5
 nod41: x[96] + x[110] + x[65] + x[9] + x[150] + x[10] + x[85] + x[120]
   + x[129] + x[42] + x[98] + x[22] + x[26] + 14 x[41] + x[77] + x[11]
   + x[73] + x[111] + x[106] + x[53] + x[30] + x[46] <= 14
 nod76: x[112] + x[59] + x[61] + x[9] + x[40] + 8 x[76] + x[36] + x[11]
   + x[51] + x[91] + x[30] + x[128] <= 8
 nod77: x[9] + x[103] + x[29] + x[23] + x[38] + x[85] + x[42] + x[32]
   + x[26] + x[122] + x[41] + 12 x[77] + x[20] + x[133] + x[89] + x[90]
   + x[75] + x[53] + x[136] + x[87] + x[128] <= 12
 nod25: x[84] + x[9] + x[44] + x[66] + x[120] + x[45] + 10 x[25] + x[117]
   + x[19] + x[20] + x[95] + x[30] + x[46] + x[136] + x[48] + x[127] <= 10
 nod94: x[96] + x[60] + x[9] + x[38] + x[40] + x[56] + x[74] + x[118]
   + x[42] + x[62] + x[26] + 11 x[94] + x[27] + x[58] + x[63] + x[30]
   + x[46] + x[48] <= 11
 nod117: x[142] + x[59] + x[72] + x[81] + x[49] + x[9] + x[70] + x[85]
   + x[62] + x[122] + x[25] + 7 x[117] + x[11] + x[51] <= 7
 nod19: x[84] + x[130] + x[81] + x[54] + x[10] + x[56] + x[45] + x[125]
   + x[25] + 8 x[19] + x[149] + x[134] + x[82] <= 8
 nod36: x[57] + x[49] + x[113] + x[115] + x[10] + x[148] + x[74] + x[107]
   + x[145] + x[76] + 11 x[36] + x[20] + x[92] + x[16] + x[137] + x[39]
   + x[123] + x[87] <= 11
 nod55: x[18] + x[84] + x[86] + x[72] + x[49] + x[144] + x[113] + x[29]
   + x[10] + x[56] + x[74] + x[21] + x[131] + x[102] + x[45] + x[145]
   + 11 x[55] + x[20] + x[89] + x[137] + x[37] <= 11
 nod11: x[47] + x[61] + x[72] + x[57] + x[113] + x[146] + x[150] + x[10]
   + x[17] + x[141] + x[41] + x[76] + x[117] + 13 x[11] + x[35] + x[31]
   + x[92] + x[138] + x[95] <= 13
 nod109: x[57] + x[143] + x[10] + x[38] + x[121] + x[34] + 8 x[109] + x[89]
   + x[16] + x[91] + x[82] + x[123] <= 8
 nod51: x[110] + x[28] + x[10] + x[66] + x[70] + x[74] + x[42] + x[139]
   + x[140] + x[121] + x[76] + x[117] + 11 x[51] + x[20] + x[92] + x[100]
   + x[63] + x[48] <= 11
 nod73: x[50] + x[61] + x[99] + x[72] + x[60] + x[105] + x[10] + x[124]
   + x[131] + x[121] + x[41] + 11 x[73] + x[27] + x[52] + x[58] + x[128]
   + x[119] <= 11
 nod20: x[68] + x[18] + x[59] + x[65] + x[99] + x[54] + x[10] + x[114]
   + x[77] + x[25] + x[36] + x[55] + x[51] + 11 x[20] + x[39] <= 11
 nod35: x[69] + x[72] + x[83] + x[54] + x[139] + x[11] + 4 x[35] + x[13]
   <= 4
 nod31: x[69] + x[142] + x[86] + x[115] + x[150] + x[74] + x[78] + x[129]
   + x[32] + x[139] + x[121] + x[34] + x[125] + x[11] + 12 x[31] + x[134]
   + x[53] + x[46] + x[48] + x[87] <= 12
 nod92: x[69] + x[50] + x[142] + x[56] + x[114] + x[118] + x[36] + x[11]
   + x[51] + 9 x[92] + x[111] + x[37] + x[119] <= 9
 nod138: x[150] + x[40] + x[42] + x[121] + x[34] + x[11] + 4 x[138] <= 4
 nod95: x[142] + x[104] + x[17] + x[135] + x[25] + x[11] + 6 x[95] + x[52]
   + x[134] + x[127] <= 6
 nod133: x[142] + x[28] + x[38] + x[74] + x[104] + x[147] + x[12] + x[145]
   + x[77] + 9 x[133] + x[89] + x[111] + x[149] + x[137] + x[82] + x[97]
   <= 9
 nod89: x[68] + x[110] + x[84] + x[101] + x[81] + x[144] + x[148] + x[114]
   + x[124] + x[126] + x[26] + x[12] + x[77] + x[55] + x[109] + x[133]
   + 11 x[89] + x[137] + x[75] + x[87] <= 11
 nod13: x[50] + x[60] + x[44] + x[54] + x[150] + x[85] + x[32] + x[98]
   + x[45] + x[122] + x[145] + x[35] + 10 x[13] + x[100] + x[111] + x[80]
   + x[149] <= 10
 nod100: x[60] + x[143] + x[74] + x[42] + x[121] + x[51] + x[13] + 6 x[100]
   + x[43] + x[82] + x[53] <= 6
 nod111: x[28] + x[56] + x[78] + x[126] + x[135] + x[41] + x[92] + x[133]
   + x[13] + 9 x[111] + x[53] + x[48] + x[132] + x[119] <= 9
 nod80: x[14] + x[146] + x[54] + x[29] + x[70] + x[32] + x[98] + x[121]
   + x[126] + x[13] + 9 x[80] + x[53] + x[127] <= 9
 nod149: x[50] + x[61] + x[101] + x[85] + x[118] + x[42] + x[32] + x[22]
   + x[19] + x[133] + x[13] + 9 x[149] + x[27] + x[90] <= 9
 nod27: x[112] + x[86] + x[65] + x[143] + x[113] + x[105] + x[15] + x[40]
   + x[118] + x[22] + x[121] + x[67] + x[94] + x[73] + x[149] + 9 x[27]
   + x[43] + x[30] <= 9
 nod16: x[113] + x[150] + x[122] + x[36] + x[109] + 5 x[16] + x[52] + x[91]
   <= 5
 nod52: x[57] + x[56] + x[32] + x[34] + x[67] + x[147] + x[135] + x[73]
   + x[95] + x[16] + 8 x[52] + x[58] + x[123] <= 8
 nod91: x[110] + x[65] + x[143] + x[74] + x[126] + x[67] + x[147] + x[76]
   + x[109] + x[16] + 9 x[91] + x[106] + x[88] + x[90] + x[119] <= 9
 nod106: x[18] + x[83] + x[54] + x[105] + x[85] + x[17] + x[21] + x[41]
   + x[91] + 9 x[106] + x[132] + x[119] <= 9
 nod88: x[110] + x[28] + x[65] + x[29] + x[118] + x[42] + x[17] + x[131]
   + x[102] + x[141] + x[91] + 10 x[88] + x[137] + x[90] + x[123] <= 10
 nod137: x[18] + x[84] + x[142] + x[86] + x[72] + x[57] + x[144] + x[148]
   + x[114] + x[116] + x[26] + x[36] + x[55] + x[133] + x[89] + x[88]
   + 11 x[137] + x[43] + x[134] + x[46] + x[87] <= 11
 nod43: x[18] + x[112] + x[74] + x[118] + x[102] + x[100] + x[27] + x[137]
   + 7 x[43] + x[134] + x[39] <= 7
 nod90: x[69] + x[18] + x[71] + x[103] + x[113] + x[85] + x[118] + x[22]
   + x[67] + x[77] + x[149] + x[91] + x[88] + 8 x[90] + x[48] + x[127]
   <= 8
 nod58: x[68] + x[18] + x[142] + x[72] + x[57] + x[115] + x[114] + x[42]
   + x[32] + x[131] + x[22] + x[147] + x[94] + x[73] + x[52] + 8 x[58]
   <= 8
 nod134: x[47] + x[72] + x[44] + x[143] + x[115] + x[29] + x[23] + x[140]
   + x[126] + x[141] + x[24] + x[19] + x[31] + x[95] + x[137] + x[43]
   + 13 x[134] + x[48] + x[97] <= 13
 nod82: x[112] + x[86] + x[101] + x[72] + x[60] + x[44] + x[38] + x[78]
   + x[125] + x[19] + x[109] + x[133] + x[100] + 11 x[82] + x[33] + x[30]
   + x[46] + x[97] <= 11
 nod39: x[96] + x[47] + x[83] + x[44] + x[32] + x[140] + x[62] + x[22]
   + x[36] + x[20] + x[43] + 9 x[39] + x[123] + x[46] + x[136] + x[127]
   <= 9
 nod63: x[110] + x[79] + x[23] + x[129] + x[21] + x[94] + x[51] + 6 x[63]
   + x[53] + x[37] <= 6
 nod75: x[69] + x[50] + x[54] + x[66] + x[120] + x[129] + x[131] + x[22]
   + x[122] + x[77] + x[89] + 8 x[75] <= 8
 nod123: x[68] + x[110] + x[47] + x[130] + x[57] + x[113] + x[22] + x[36]
   + x[109] + x[52] + x[88] + x[39] + 10 x[123] + x[53] + x[48] + x[97]
   <= 10
 nod33: x[110] + x[44] + x[105] + x[150] + x[23] + x[129] + x[104] + x[82]
   + 7 x[33] + x[97] <= 7
 nod53: x[68] + x[115] + x[105] + x[29] + x[23] + x[74] + x[93] + x[102]
   + x[41] + x[77] + x[31] + x[100] + x[111] + x[80] + x[63] + x[123]
   + 10 x[53] + x[119] <= 10
 nod30: x[79] + x[103] + x[23] + x[78] + x[93] + x[114] + x[141] + x[125]
   + x[41] + x[76] + x[25] + x[94] + x[27] + x[82] + 12 x[30] + x[136]
   <= 12
 nod46: x[110] + x[142] + x[57] + x[60] + x[113] + x[56] + x[74] + x[140]
   + x[24] + x[41] + x[25] + x[94] + x[31] + x[137] + x[82] + x[39]
   + 10 x[46] + x[127] + x[132] <= 10
 nod136: x[56] + x[78] + x[120] + x[98] + x[139] + x[140] + x[62] + x[77]
   + x[25] + x[39] + x[30] + 8 x[136] + x[132] <= 8
 nod48: x[50] + x[65] + x[83] + x[71] + x[103] + x[124] + x[104] + x[116]
   + x[25] + x[94] + x[51] + x[31] + x[111] + x[90] + x[134] + x[123]
   + 12 x[48] <= 12
 nod127: x[96] + x[110] + x[59] + x[150] + x[56] + x[34] + x[25] + x[95]
   + x[80] + x[90] + x[39] + x[46] + 9 x[127] + x[119] <= 9
 nod132: x[112] + x[142] + x[59] + x[60] + x[103] + x[115] + x[148]
   + x[141] + x[26] + x[111] + x[106] + x[46] + x[136] + 11 x[132] <= 11
 nod97: x[64] + x[69] + x[112] + x[59] + x[81] + x[71] + x[29] + x[85]
   + x[133] + x[134] + x[82] + x[123] + x[33] + 9 x[97] <= 9
 nod87: x[110] + x[47] + x[59] + x[61] + x[60] + x[143] + x[148] + x[40]
   + x[124] + x[129] + x[102] + x[77] + x[36] + x[31] + x[89] + x[137]
   + 12 x[87] <= 12
 nod37: x[64] + x[68] + x[84] + x[143] + x[150] + x[120] + x[139] + x[55]
   + x[92] + x[63] + 7 x[37] <= 7
 nod128: x[86] + x[79] + x[49] + x[103] + x[54] + x[105] + x[40] + x[56]
   + x[114] + x[124] + x[140] + x[76] + x[77] + x[73] + 8 x[128] <= 8
 nod119: x[68] + x[142] + x[143] + x[146] + x[115] + x[54] + x[74] + x[141]
   + x[135] + x[73] + x[92] + x[111] + x[91] + x[106] + x[53] + x[127]
   + 9 x[119] <= 9
 nod108: x[69] + x[112] + x[84] + x[118] + x[140] + 5 x[108] <= 5
Bounds
Binaries
 x[1] x[96] x[64] x[68] x[69] x[8] x[18] x[110] x[47] x[112] x[50] x[84]
 x[142] x[86] x[59] x[28] x[61] x[101] x[2] x[65] x[130] x[99] x[72] x[14]
 x[79] x[81] x[57] x[60] x[3] x[83] x[49] x[71] x[9] x[103] x[44] x[143]
 x[144] x[113] x[146] x[115] x[54] x[105] x[15] x[29] x[150] x[4] x[10]
 x[148] x[23] x[38] x[40] x[56] x[66] x[70] x[74] x[78] x[85] x[93] x[107]
 x[114] x[118] x[120] x[124] x[5] x[129] x[6] x[7] x[104] x[42] x[17] x[21]
 x[32] x[98] x[131] x[102] x[139] x[140] x[116] x[62] x[22] x[121] x[126]
 x[34] x[67] x[45] x[141] x[26] x[147] x[122] x[125] x[135] x[12] x[145]
 x[24] x[41] x[76] x[77] x[25] x[94] x[117] x[19] x[36] x[55] x[11] x[109]
 x[51] x[73] x[20] x[35] x[31] x[92] x[138] x[95] x[133] x[89] x[13] x[100]
 x[111] x[80] x[149] x[27] x[16] x[52] x[91] x[106] x[88] x[137] x[43]
 x[90] x[58] x[134] x[82] x[39] x[63] x[75] x[123] x[33] x[53] x[30] x[46]
 x[136] x[48] x[127] x[132] x[97] x[87] x[37] x[128] x[119] x[108]
End
